c *********************************
c * Circuit generated by BenCGen
c *
c * Parity_413
c *
c * Ports with 1 gate(s): 1
c * Ports with 2 gate(s): 413
c * Total gates: 414
c *********************************
p cnf 827 1653
1 416 0
-1 -416 0
1 -415 0
416 -415 0
-1 -416 415 0
1 2 -417 0
-1 2 417 0
1 -2 417 0
-1 -2 -417 0
3 4 -418 0
-3 4 418 0
3 -4 418 0
-3 -4 -418 0
5 6 -419 0
-5 6 419 0
5 -6 419 0
-5 -6 -419 0
7 8 -420 0
-7 8 420 0
7 -8 420 0
-7 -8 -420 0
9 10 -421 0
-9 10 421 0
9 -10 421 0
-9 -10 -421 0
11 12 -422 0
-11 12 422 0
11 -12 422 0
-11 -12 -422 0
13 14 -423 0
-13 14 423 0
13 -14 423 0
-13 -14 -423 0
15 16 -424 0
-15 16 424 0
15 -16 424 0
-15 -16 -424 0
17 18 -425 0
-17 18 425 0
17 -18 425 0
-17 -18 -425 0
19 20 -426 0
-19 20 426 0
19 -20 426 0
-19 -20 -426 0
21 22 -427 0
-21 22 427 0
21 -22 427 0
-21 -22 -427 0
23 24 -428 0
-23 24 428 0
23 -24 428 0
-23 -24 -428 0
25 26 -429 0
-25 26 429 0
25 -26 429 0
-25 -26 -429 0
27 28 -430 0
-27 28 430 0
27 -28 430 0
-27 -28 -430 0
29 30 -431 0
-29 30 431 0
29 -30 431 0
-29 -30 -431 0
31 32 -432 0
-31 32 432 0
31 -32 432 0
-31 -32 -432 0
33 34 -433 0
-33 34 433 0
33 -34 433 0
-33 -34 -433 0
35 36 -434 0
-35 36 434 0
35 -36 434 0
-35 -36 -434 0
37 38 -435 0
-37 38 435 0
37 -38 435 0
-37 -38 -435 0
39 40 -436 0
-39 40 436 0
39 -40 436 0
-39 -40 -436 0
41 42 -437 0
-41 42 437 0
41 -42 437 0
-41 -42 -437 0
43 44 -438 0
-43 44 438 0
43 -44 438 0
-43 -44 -438 0
45 46 -439 0
-45 46 439 0
45 -46 439 0
-45 -46 -439 0
47 48 -440 0
-47 48 440 0
47 -48 440 0
-47 -48 -440 0
49 50 -441 0
-49 50 441 0
49 -50 441 0
-49 -50 -441 0
51 52 -442 0
-51 52 442 0
51 -52 442 0
-51 -52 -442 0
53 54 -443 0
-53 54 443 0
53 -54 443 0
-53 -54 -443 0
55 56 -444 0
-55 56 444 0
55 -56 444 0
-55 -56 -444 0
57 58 -445 0
-57 58 445 0
57 -58 445 0
-57 -58 -445 0
59 60 -446 0
-59 60 446 0
59 -60 446 0
-59 -60 -446 0
61 62 -447 0
-61 62 447 0
61 -62 447 0
-61 -62 -447 0
63 64 -448 0
-63 64 448 0
63 -64 448 0
-63 -64 -448 0
65 66 -449 0
-65 66 449 0
65 -66 449 0
-65 -66 -449 0
67 68 -450 0
-67 68 450 0
67 -68 450 0
-67 -68 -450 0
69 70 -451 0
-69 70 451 0
69 -70 451 0
-69 -70 -451 0
71 72 -452 0
-71 72 452 0
71 -72 452 0
-71 -72 -452 0
73 74 -453 0
-73 74 453 0
73 -74 453 0
-73 -74 -453 0
75 76 -454 0
-75 76 454 0
75 -76 454 0
-75 -76 -454 0
77 78 -455 0
-77 78 455 0
77 -78 455 0
-77 -78 -455 0
79 80 -456 0
-79 80 456 0
79 -80 456 0
-79 -80 -456 0
81 82 -457 0
-81 82 457 0
81 -82 457 0
-81 -82 -457 0
83 84 -458 0
-83 84 458 0
83 -84 458 0
-83 -84 -458 0
85 86 -459 0
-85 86 459 0
85 -86 459 0
-85 -86 -459 0
87 88 -460 0
-87 88 460 0
87 -88 460 0
-87 -88 -460 0
89 90 -461 0
-89 90 461 0
89 -90 461 0
-89 -90 -461 0
91 92 -462 0
-91 92 462 0
91 -92 462 0
-91 -92 -462 0
93 94 -463 0
-93 94 463 0
93 -94 463 0
-93 -94 -463 0
95 96 -464 0
-95 96 464 0
95 -96 464 0
-95 -96 -464 0
97 98 -465 0
-97 98 465 0
97 -98 465 0
-97 -98 -465 0
99 100 -466 0
-99 100 466 0
99 -100 466 0
-99 -100 -466 0
101 102 -467 0
-101 102 467 0
101 -102 467 0
-101 -102 -467 0
103 104 -468 0
-103 104 468 0
103 -104 468 0
-103 -104 -468 0
105 106 -469 0
-105 106 469 0
105 -106 469 0
-105 -106 -469 0
107 108 -470 0
-107 108 470 0
107 -108 470 0
-107 -108 -470 0
109 110 -471 0
-109 110 471 0
109 -110 471 0
-109 -110 -471 0
111 112 -472 0
-111 112 472 0
111 -112 472 0
-111 -112 -472 0
113 114 -473 0
-113 114 473 0
113 -114 473 0
-113 -114 -473 0
115 116 -474 0
-115 116 474 0
115 -116 474 0
-115 -116 -474 0
117 118 -475 0
-117 118 475 0
117 -118 475 0
-117 -118 -475 0
119 120 -476 0
-119 120 476 0
119 -120 476 0
-119 -120 -476 0
121 122 -477 0
-121 122 477 0
121 -122 477 0
-121 -122 -477 0
123 124 -478 0
-123 124 478 0
123 -124 478 0
-123 -124 -478 0
125 126 -479 0
-125 126 479 0
125 -126 479 0
-125 -126 -479 0
127 128 -480 0
-127 128 480 0
127 -128 480 0
-127 -128 -480 0
129 130 -481 0
-129 130 481 0
129 -130 481 0
-129 -130 -481 0
131 132 -482 0
-131 132 482 0
131 -132 482 0
-131 -132 -482 0
133 134 -483 0
-133 134 483 0
133 -134 483 0
-133 -134 -483 0
135 136 -484 0
-135 136 484 0
135 -136 484 0
-135 -136 -484 0
137 138 -485 0
-137 138 485 0
137 -138 485 0
-137 -138 -485 0
139 140 -486 0
-139 140 486 0
139 -140 486 0
-139 -140 -486 0
141 142 -487 0
-141 142 487 0
141 -142 487 0
-141 -142 -487 0
143 144 -488 0
-143 144 488 0
143 -144 488 0
-143 -144 -488 0
145 146 -489 0
-145 146 489 0
145 -146 489 0
-145 -146 -489 0
147 148 -490 0
-147 148 490 0
147 -148 490 0
-147 -148 -490 0
149 150 -491 0
-149 150 491 0
149 -150 491 0
-149 -150 -491 0
151 152 -492 0
-151 152 492 0
151 -152 492 0
-151 -152 -492 0
153 154 -493 0
-153 154 493 0
153 -154 493 0
-153 -154 -493 0
155 156 -494 0
-155 156 494 0
155 -156 494 0
-155 -156 -494 0
157 158 -495 0
-157 158 495 0
157 -158 495 0
-157 -158 -495 0
159 160 -496 0
-159 160 496 0
159 -160 496 0
-159 -160 -496 0
161 162 -497 0
-161 162 497 0
161 -162 497 0
-161 -162 -497 0
163 164 -498 0
-163 164 498 0
163 -164 498 0
-163 -164 -498 0
165 166 -499 0
-165 166 499 0
165 -166 499 0
-165 -166 -499 0
167 168 -500 0
-167 168 500 0
167 -168 500 0
-167 -168 -500 0
169 170 -501 0
-169 170 501 0
169 -170 501 0
-169 -170 -501 0
171 172 -502 0
-171 172 502 0
171 -172 502 0
-171 -172 -502 0
173 174 -503 0
-173 174 503 0
173 -174 503 0
-173 -174 -503 0
175 176 -504 0
-175 176 504 0
175 -176 504 0
-175 -176 -504 0
177 178 -505 0
-177 178 505 0
177 -178 505 0
-177 -178 -505 0
179 180 -506 0
-179 180 506 0
179 -180 506 0
-179 -180 -506 0
181 182 -507 0
-181 182 507 0
181 -182 507 0
-181 -182 -507 0
183 184 -508 0
-183 184 508 0
183 -184 508 0
-183 -184 -508 0
185 186 -509 0
-185 186 509 0
185 -186 509 0
-185 -186 -509 0
187 188 -510 0
-187 188 510 0
187 -188 510 0
-187 -188 -510 0
189 190 -511 0
-189 190 511 0
189 -190 511 0
-189 -190 -511 0
191 192 -512 0
-191 192 512 0
191 -192 512 0
-191 -192 -512 0
193 194 -513 0
-193 194 513 0
193 -194 513 0
-193 -194 -513 0
195 196 -514 0
-195 196 514 0
195 -196 514 0
-195 -196 -514 0
197 198 -515 0
-197 198 515 0
197 -198 515 0
-197 -198 -515 0
199 200 -516 0
-199 200 516 0
199 -200 516 0
-199 -200 -516 0
201 202 -517 0
-201 202 517 0
201 -202 517 0
-201 -202 -517 0
203 204 -518 0
-203 204 518 0
203 -204 518 0
-203 -204 -518 0
205 206 -519 0
-205 206 519 0
205 -206 519 0
-205 -206 -519 0
207 208 -520 0
-207 208 520 0
207 -208 520 0
-207 -208 -520 0
209 210 -521 0
-209 210 521 0
209 -210 521 0
-209 -210 -521 0
211 212 -522 0
-211 212 522 0
211 -212 522 0
-211 -212 -522 0
213 214 -523 0
-213 214 523 0
213 -214 523 0
-213 -214 -523 0
215 216 -524 0
-215 216 524 0
215 -216 524 0
-215 -216 -524 0
217 218 -525 0
-217 218 525 0
217 -218 525 0
-217 -218 -525 0
219 220 -526 0
-219 220 526 0
219 -220 526 0
-219 -220 -526 0
221 222 -527 0
-221 222 527 0
221 -222 527 0
-221 -222 -527 0
223 224 -528 0
-223 224 528 0
223 -224 528 0
-223 -224 -528 0
225 226 -529 0
-225 226 529 0
225 -226 529 0
-225 -226 -529 0
227 228 -530 0
-227 228 530 0
227 -228 530 0
-227 -228 -530 0
229 230 -531 0
-229 230 531 0
229 -230 531 0
-229 -230 -531 0
231 232 -532 0
-231 232 532 0
231 -232 532 0
-231 -232 -532 0
233 234 -533 0
-233 234 533 0
233 -234 533 0
-233 -234 -533 0
235 236 -534 0
-235 236 534 0
235 -236 534 0
-235 -236 -534 0
237 238 -535 0
-237 238 535 0
237 -238 535 0
-237 -238 -535 0
239 240 -536 0
-239 240 536 0
239 -240 536 0
-239 -240 -536 0
241 242 -537 0
-241 242 537 0
241 -242 537 0
-241 -242 -537 0
243 244 -538 0
-243 244 538 0
243 -244 538 0
-243 -244 -538 0
245 246 -539 0
-245 246 539 0
245 -246 539 0
-245 -246 -539 0
247 248 -540 0
-247 248 540 0
247 -248 540 0
-247 -248 -540 0
249 250 -541 0
-249 250 541 0
249 -250 541 0
-249 -250 -541 0
251 252 -542 0
-251 252 542 0
251 -252 542 0
-251 -252 -542 0
253 254 -543 0
-253 254 543 0
253 -254 543 0
-253 -254 -543 0
255 256 -544 0
-255 256 544 0
255 -256 544 0
-255 -256 -544 0
257 258 -545 0
-257 258 545 0
257 -258 545 0
-257 -258 -545 0
259 260 -546 0
-259 260 546 0
259 -260 546 0
-259 -260 -546 0
261 262 -547 0
-261 262 547 0
261 -262 547 0
-261 -262 -547 0
263 264 -548 0
-263 264 548 0
263 -264 548 0
-263 -264 -548 0
265 266 -549 0
-265 266 549 0
265 -266 549 0
-265 -266 -549 0
267 268 -550 0
-267 268 550 0
267 -268 550 0
-267 -268 -550 0
269 270 -551 0
-269 270 551 0
269 -270 551 0
-269 -270 -551 0
271 272 -552 0
-271 272 552 0
271 -272 552 0
-271 -272 -552 0
273 274 -553 0
-273 274 553 0
273 -274 553 0
-273 -274 -553 0
275 276 -554 0
-275 276 554 0
275 -276 554 0
-275 -276 -554 0
277 278 -555 0
-277 278 555 0
277 -278 555 0
-277 -278 -555 0
279 280 -556 0
-279 280 556 0
279 -280 556 0
-279 -280 -556 0
281 282 -557 0
-281 282 557 0
281 -282 557 0
-281 -282 -557 0
283 284 -558 0
-283 284 558 0
283 -284 558 0
-283 -284 -558 0
285 286 -559 0
-285 286 559 0
285 -286 559 0
-285 -286 -559 0
287 288 -560 0
-287 288 560 0
287 -288 560 0
-287 -288 -560 0
289 290 -561 0
-289 290 561 0
289 -290 561 0
-289 -290 -561 0
291 292 -562 0
-291 292 562 0
291 -292 562 0
-291 -292 -562 0
293 294 -563 0
-293 294 563 0
293 -294 563 0
-293 -294 -563 0
295 296 -564 0
-295 296 564 0
295 -296 564 0
-295 -296 -564 0
297 298 -565 0
-297 298 565 0
297 -298 565 0
-297 -298 -565 0
299 300 -566 0
-299 300 566 0
299 -300 566 0
-299 -300 -566 0
301 302 -567 0
-301 302 567 0
301 -302 567 0
-301 -302 -567 0
303 304 -568 0
-303 304 568 0
303 -304 568 0
-303 -304 -568 0
305 306 -569 0
-305 306 569 0
305 -306 569 0
-305 -306 -569 0
307 308 -570 0
-307 308 570 0
307 -308 570 0
-307 -308 -570 0
309 310 -571 0
-309 310 571 0
309 -310 571 0
-309 -310 -571 0
311 312 -572 0
-311 312 572 0
311 -312 572 0
-311 -312 -572 0
313 314 -573 0
-313 314 573 0
313 -314 573 0
-313 -314 -573 0
315 316 -574 0
-315 316 574 0
315 -316 574 0
-315 -316 -574 0
317 318 -575 0
-317 318 575 0
317 -318 575 0
-317 -318 -575 0
319 320 -576 0
-319 320 576 0
319 -320 576 0
-319 -320 -576 0
321 322 -577 0
-321 322 577 0
321 -322 577 0
-321 -322 -577 0
323 324 -578 0
-323 324 578 0
323 -324 578 0
-323 -324 -578 0
325 326 -579 0
-325 326 579 0
325 -326 579 0
-325 -326 -579 0
327 328 -580 0
-327 328 580 0
327 -328 580 0
-327 -328 -580 0
329 330 -581 0
-329 330 581 0
329 -330 581 0
-329 -330 -581 0
331 332 -582 0
-331 332 582 0
331 -332 582 0
-331 -332 -582 0
333 334 -583 0
-333 334 583 0
333 -334 583 0
-333 -334 -583 0
335 336 -584 0
-335 336 584 0
335 -336 584 0
-335 -336 -584 0
337 338 -585 0
-337 338 585 0
337 -338 585 0
-337 -338 -585 0
339 340 -586 0
-339 340 586 0
339 -340 586 0
-339 -340 -586 0
341 342 -587 0
-341 342 587 0
341 -342 587 0
-341 -342 -587 0
343 344 -588 0
-343 344 588 0
343 -344 588 0
-343 -344 -588 0
345 346 -589 0
-345 346 589 0
345 -346 589 0
-345 -346 -589 0
347 348 -590 0
-347 348 590 0
347 -348 590 0
-347 -348 -590 0
349 350 -591 0
-349 350 591 0
349 -350 591 0
-349 -350 -591 0
351 352 -592 0
-351 352 592 0
351 -352 592 0
-351 -352 -592 0
353 354 -593 0
-353 354 593 0
353 -354 593 0
-353 -354 -593 0
355 356 -594 0
-355 356 594 0
355 -356 594 0
-355 -356 -594 0
357 358 -595 0
-357 358 595 0
357 -358 595 0
-357 -358 -595 0
359 360 -596 0
-359 360 596 0
359 -360 596 0
-359 -360 -596 0
361 362 -597 0
-361 362 597 0
361 -362 597 0
-361 -362 -597 0
363 364 -598 0
-363 364 598 0
363 -364 598 0
-363 -364 -598 0
365 366 -599 0
-365 366 599 0
365 -366 599 0
-365 -366 -599 0
367 368 -600 0
-367 368 600 0
367 -368 600 0
-367 -368 -600 0
369 370 -601 0
-369 370 601 0
369 -370 601 0
-369 -370 -601 0
371 372 -602 0
-371 372 602 0
371 -372 602 0
-371 -372 -602 0
373 374 -603 0
-373 374 603 0
373 -374 603 0
-373 -374 -603 0
375 376 -604 0
-375 376 604 0
375 -376 604 0
-375 -376 -604 0
377 378 -605 0
-377 378 605 0
377 -378 605 0
-377 -378 -605 0
379 380 -606 0
-379 380 606 0
379 -380 606 0
-379 -380 -606 0
381 382 -607 0
-381 382 607 0
381 -382 607 0
-381 -382 -607 0
383 384 -608 0
-383 384 608 0
383 -384 608 0
-383 -384 -608 0
385 386 -609 0
-385 386 609 0
385 -386 609 0
-385 -386 -609 0
387 388 -610 0
-387 388 610 0
387 -388 610 0
-387 -388 -610 0
389 390 -611 0
-389 390 611 0
389 -390 611 0
-389 -390 -611 0
391 392 -612 0
-391 392 612 0
391 -392 612 0
-391 -392 -612 0
393 394 -613 0
-393 394 613 0
393 -394 613 0
-393 -394 -613 0
395 396 -614 0
-395 396 614 0
395 -396 614 0
-395 -396 -614 0
397 398 -615 0
-397 398 615 0
397 -398 615 0
-397 -398 -615 0
399 400 -616 0
-399 400 616 0
399 -400 616 0
-399 -400 -616 0
401 402 -617 0
-401 402 617 0
401 -402 617 0
-401 -402 -617 0
403 404 -618 0
-403 404 618 0
403 -404 618 0
-403 -404 -618 0
405 406 -619 0
-405 406 619 0
405 -406 619 0
-405 -406 -619 0
407 408 -620 0
-407 408 620 0
407 -408 620 0
-407 -408 -620 0
409 410 -621 0
-409 410 621 0
409 -410 621 0
-409 -410 -621 0
411 412 -622 0
-411 412 622 0
411 -412 622 0
-411 -412 -622 0
417 418 -623 0
-417 418 623 0
417 -418 623 0
-417 -418 -623 0
419 420 -624 0
-419 420 624 0
419 -420 624 0
-419 -420 -624 0
421 422 -625 0
-421 422 625 0
421 -422 625 0
-421 -422 -625 0
423 424 -626 0
-423 424 626 0
423 -424 626 0
-423 -424 -626 0
425 426 -627 0
-425 426 627 0
425 -426 627 0
-425 -426 -627 0
427 428 -628 0
-427 428 628 0
427 -428 628 0
-427 -428 -628 0
429 430 -629 0
-429 430 629 0
429 -430 629 0
-429 -430 -629 0
431 432 -630 0
-431 432 630 0
431 -432 630 0
-431 -432 -630 0
433 434 -631 0
-433 434 631 0
433 -434 631 0
-433 -434 -631 0
435 436 -632 0
-435 436 632 0
435 -436 632 0
-435 -436 -632 0
437 438 -633 0
-437 438 633 0
437 -438 633 0
-437 -438 -633 0
439 440 -634 0
-439 440 634 0
439 -440 634 0
-439 -440 -634 0
441 442 -635 0
-441 442 635 0
441 -442 635 0
-441 -442 -635 0
443 444 -636 0
-443 444 636 0
443 -444 636 0
-443 -444 -636 0
445 446 -637 0
-445 446 637 0
445 -446 637 0
-445 -446 -637 0
447 448 -638 0
-447 448 638 0
447 -448 638 0
-447 -448 -638 0
449 450 -639 0
-449 450 639 0
449 -450 639 0
-449 -450 -639 0
451 452 -640 0
-451 452 640 0
451 -452 640 0
-451 -452 -640 0
453 454 -641 0
-453 454 641 0
453 -454 641 0
-453 -454 -641 0
455 456 -642 0
-455 456 642 0
455 -456 642 0
-455 -456 -642 0
457 458 -643 0
-457 458 643 0
457 -458 643 0
-457 -458 -643 0
459 460 -644 0
-459 460 644 0
459 -460 644 0
-459 -460 -644 0
461 462 -645 0
-461 462 645 0
461 -462 645 0
-461 -462 -645 0
463 464 -646 0
-463 464 646 0
463 -464 646 0
-463 -464 -646 0
465 466 -647 0
-465 466 647 0
465 -466 647 0
-465 -466 -647 0
467 468 -648 0
-467 468 648 0
467 -468 648 0
-467 -468 -648 0
469 470 -649 0
-469 470 649 0
469 -470 649 0
-469 -470 -649 0
471 472 -650 0
-471 472 650 0
471 -472 650 0
-471 -472 -650 0
473 474 -651 0
-473 474 651 0
473 -474 651 0
-473 -474 -651 0
475 476 -652 0
-475 476 652 0
475 -476 652 0
-475 -476 -652 0
477 478 -653 0
-477 478 653 0
477 -478 653 0
-477 -478 -653 0
479 480 -654 0
-479 480 654 0
479 -480 654 0
-479 -480 -654 0
481 482 -655 0
-481 482 655 0
481 -482 655 0
-481 -482 -655 0
483 484 -656 0
-483 484 656 0
483 -484 656 0
-483 -484 -656 0
485 486 -657 0
-485 486 657 0
485 -486 657 0
-485 -486 -657 0
487 488 -658 0
-487 488 658 0
487 -488 658 0
-487 -488 -658 0
489 490 -659 0
-489 490 659 0
489 -490 659 0
-489 -490 -659 0
491 492 -660 0
-491 492 660 0
491 -492 660 0
-491 -492 -660 0
493 494 -661 0
-493 494 661 0
493 -494 661 0
-493 -494 -661 0
495 496 -662 0
-495 496 662 0
495 -496 662 0
-495 -496 -662 0
497 498 -663 0
-497 498 663 0
497 -498 663 0
-497 -498 -663 0
499 500 -664 0
-499 500 664 0
499 -500 664 0
-499 -500 -664 0
501 502 -665 0
-501 502 665 0
501 -502 665 0
-501 -502 -665 0
503 504 -666 0
-503 504 666 0
503 -504 666 0
-503 -504 -666 0
505 506 -667 0
-505 506 667 0
505 -506 667 0
-505 -506 -667 0
507 508 -668 0
-507 508 668 0
507 -508 668 0
-507 -508 -668 0
509 510 -669 0
-509 510 669 0
509 -510 669 0
-509 -510 -669 0
511 512 -670 0
-511 512 670 0
511 -512 670 0
-511 -512 -670 0
513 514 -671 0
-513 514 671 0
513 -514 671 0
-513 -514 -671 0
515 516 -672 0
-515 516 672 0
515 -516 672 0
-515 -516 -672 0
517 518 -673 0
-517 518 673 0
517 -518 673 0
-517 -518 -673 0
519 520 -674 0
-519 520 674 0
519 -520 674 0
-519 -520 -674 0
521 522 -675 0
-521 522 675 0
521 -522 675 0
-521 -522 -675 0
523 524 -676 0
-523 524 676 0
523 -524 676 0
-523 -524 -676 0
525 526 -677 0
-525 526 677 0
525 -526 677 0
-525 -526 -677 0
527 528 -678 0
-527 528 678 0
527 -528 678 0
-527 -528 -678 0
529 530 -679 0
-529 530 679 0
529 -530 679 0
-529 -530 -679 0
531 532 -680 0
-531 532 680 0
531 -532 680 0
-531 -532 -680 0
533 534 -681 0
-533 534 681 0
533 -534 681 0
-533 -534 -681 0
535 536 -682 0
-535 536 682 0
535 -536 682 0
-535 -536 -682 0
537 538 -683 0
-537 538 683 0
537 -538 683 0
-537 -538 -683 0
539 540 -684 0
-539 540 684 0
539 -540 684 0
-539 -540 -684 0
541 542 -685 0
-541 542 685 0
541 -542 685 0
-541 -542 -685 0
543 544 -686 0
-543 544 686 0
543 -544 686 0
-543 -544 -686 0
545 546 -687 0
-545 546 687 0
545 -546 687 0
-545 -546 -687 0
547 548 -688 0
-547 548 688 0
547 -548 688 0
-547 -548 -688 0
549 550 -689 0
-549 550 689 0
549 -550 689 0
-549 -550 -689 0
551 552 -690 0
-551 552 690 0
551 -552 690 0
-551 -552 -690 0
553 554 -691 0
-553 554 691 0
553 -554 691 0
-553 -554 -691 0
555 556 -692 0
-555 556 692 0
555 -556 692 0
-555 -556 -692 0
557 558 -693 0
-557 558 693 0
557 -558 693 0
-557 -558 -693 0
559 560 -694 0
-559 560 694 0
559 -560 694 0
-559 -560 -694 0
561 562 -695 0
-561 562 695 0
561 -562 695 0
-561 -562 -695 0
563 564 -696 0
-563 564 696 0
563 -564 696 0
-563 -564 -696 0
565 566 -697 0
-565 566 697 0
565 -566 697 0
-565 -566 -697 0
567 568 -698 0
-567 568 698 0
567 -568 698 0
-567 -568 -698 0
569 570 -699 0
-569 570 699 0
569 -570 699 0
-569 -570 -699 0
571 572 -700 0
-571 572 700 0
571 -572 700 0
-571 -572 -700 0
573 574 -701 0
-573 574 701 0
573 -574 701 0
-573 -574 -701 0
575 576 -702 0
-575 576 702 0
575 -576 702 0
-575 -576 -702 0
577 578 -703 0
-577 578 703 0
577 -578 703 0
-577 -578 -703 0
579 580 -704 0
-579 580 704 0
579 -580 704 0
-579 -580 -704 0
581 582 -705 0
-581 582 705 0
581 -582 705 0
-581 -582 -705 0
583 584 -706 0
-583 584 706 0
583 -584 706 0
-583 -584 -706 0
585 586 -707 0
-585 586 707 0
585 -586 707 0
-585 -586 -707 0
587 588 -708 0
-587 588 708 0
587 -588 708 0
-587 -588 -708 0
589 590 -709 0
-589 590 709 0
589 -590 709 0
-589 -590 -709 0
591 592 -710 0
-591 592 710 0
591 -592 710 0
-591 -592 -710 0
593 594 -711 0
-593 594 711 0
593 -594 711 0
-593 -594 -711 0
595 596 -712 0
-595 596 712 0
595 -596 712 0
-595 -596 -712 0
597 598 -713 0
-597 598 713 0
597 -598 713 0
-597 -598 -713 0
599 600 -714 0
-599 600 714 0
599 -600 714 0
-599 -600 -714 0
601 602 -715 0
-601 602 715 0
601 -602 715 0
-601 -602 -715 0
603 604 -716 0
-603 604 716 0
603 -604 716 0
-603 -604 -716 0
605 606 -717 0
-605 606 717 0
605 -606 717 0
-605 -606 -717 0
607 608 -718 0
-607 608 718 0
607 -608 718 0
-607 -608 -718 0
609 610 -719 0
-609 610 719 0
609 -610 719 0
-609 -610 -719 0
611 612 -720 0
-611 612 720 0
611 -612 720 0
-611 -612 -720 0
613 614 -721 0
-613 614 721 0
613 -614 721 0
-613 -614 -721 0
615 616 -722 0
-615 616 722 0
615 -616 722 0
-615 -616 -722 0
617 618 -723 0
-617 618 723 0
617 -618 723 0
-617 -618 -723 0
619 620 -724 0
-619 620 724 0
619 -620 724 0
-619 -620 -724 0
621 622 -725 0
-621 622 725 0
621 -622 725 0
-621 -622 -725 0
623 624 -726 0
-623 624 726 0
623 -624 726 0
-623 -624 -726 0
625 626 -727 0
-625 626 727 0
625 -626 727 0
-625 -626 -727 0
627 628 -728 0
-627 628 728 0
627 -628 728 0
-627 -628 -728 0
629 630 -729 0
-629 630 729 0
629 -630 729 0
-629 -630 -729 0
631 632 -730 0
-631 632 730 0
631 -632 730 0
-631 -632 -730 0
633 634 -731 0
-633 634 731 0
633 -634 731 0
-633 -634 -731 0
635 636 -732 0
-635 636 732 0
635 -636 732 0
-635 -636 -732 0
637 638 -733 0
-637 638 733 0
637 -638 733 0
-637 -638 -733 0
639 640 -734 0
-639 640 734 0
639 -640 734 0
-639 -640 -734 0
641 642 -735 0
-641 642 735 0
641 -642 735 0
-641 -642 -735 0
643 644 -736 0
-643 644 736 0
643 -644 736 0
-643 -644 -736 0
645 646 -737 0
-645 646 737 0
645 -646 737 0
-645 -646 -737 0
647 648 -738 0
-647 648 738 0
647 -648 738 0
-647 -648 -738 0
649 650 -739 0
-649 650 739 0
649 -650 739 0
-649 -650 -739 0
651 652 -740 0
-651 652 740 0
651 -652 740 0
-651 -652 -740 0
653 654 -741 0
-653 654 741 0
653 -654 741 0
-653 -654 -741 0
655 656 -742 0
-655 656 742 0
655 -656 742 0
-655 -656 -742 0
657 658 -743 0
-657 658 743 0
657 -658 743 0
-657 -658 -743 0
659 660 -744 0
-659 660 744 0
659 -660 744 0
-659 -660 -744 0
661 662 -745 0
-661 662 745 0
661 -662 745 0
-661 -662 -745 0
663 664 -746 0
-663 664 746 0
663 -664 746 0
-663 -664 -746 0
665 666 -747 0
-665 666 747 0
665 -666 747 0
-665 -666 -747 0
667 668 -748 0
-667 668 748 0
667 -668 748 0
-667 -668 -748 0
669 670 -749 0
-669 670 749 0
669 -670 749 0
-669 -670 -749 0
671 672 -750 0
-671 672 750 0
671 -672 750 0
-671 -672 -750 0
673 674 -751 0
-673 674 751 0
673 -674 751 0
-673 -674 -751 0
675 676 -752 0
-675 676 752 0
675 -676 752 0
-675 -676 -752 0
677 678 -753 0
-677 678 753 0
677 -678 753 0
-677 -678 -753 0
679 680 -754 0
-679 680 754 0
679 -680 754 0
-679 -680 -754 0
681 682 -755 0
-681 682 755 0
681 -682 755 0
-681 -682 -755 0
683 684 -756 0
-683 684 756 0
683 -684 756 0
-683 -684 -756 0
685 686 -757 0
-685 686 757 0
685 -686 757 0
-685 -686 -757 0
687 688 -758 0
-687 688 758 0
687 -688 758 0
-687 -688 -758 0
689 690 -759 0
-689 690 759 0
689 -690 759 0
-689 -690 -759 0
691 692 -760 0
-691 692 760 0
691 -692 760 0
-691 -692 -760 0
693 694 -761 0
-693 694 761 0
693 -694 761 0
-693 -694 -761 0
695 696 -762 0
-695 696 762 0
695 -696 762 0
-695 -696 -762 0
697 698 -763 0
-697 698 763 0
697 -698 763 0
-697 -698 -763 0
699 700 -764 0
-699 700 764 0
699 -700 764 0
-699 -700 -764 0
701 702 -765 0
-701 702 765 0
701 -702 765 0
-701 -702 -765 0
703 704 -766 0
-703 704 766 0
703 -704 766 0
-703 -704 -766 0
705 706 -767 0
-705 706 767 0
705 -706 767 0
-705 -706 -767 0
707 708 -768 0
-707 708 768 0
707 -708 768 0
-707 -708 -768 0
709 710 -769 0
-709 710 769 0
709 -710 769 0
-709 -710 -769 0
711 712 -770 0
-711 712 770 0
711 -712 770 0
-711 -712 -770 0
713 714 -771 0
-713 714 771 0
713 -714 771 0
-713 -714 -771 0
715 716 -772 0
-715 716 772 0
715 -716 772 0
-715 -716 -772 0
717 718 -773 0
-717 718 773 0
717 -718 773 0
-717 -718 -773 0
719 720 -774 0
-719 720 774 0
719 -720 774 0
-719 -720 -774 0
721 722 -775 0
-721 722 775 0
721 -722 775 0
-721 -722 -775 0
723 724 -776 0
-723 724 776 0
723 -724 776 0
-723 -724 -776 0
725 413 -777 0
-725 413 777 0
725 -413 777 0
-725 -413 -777 0
726 727 -778 0
-726 727 778 0
726 -727 778 0
-726 -727 -778 0
728 729 -779 0
-728 729 779 0
728 -729 779 0
-728 -729 -779 0
730 731 -780 0
-730 731 780 0
730 -731 780 0
-730 -731 -780 0
732 733 -781 0
-732 733 781 0
732 -733 781 0
-732 -733 -781 0
734 735 -782 0
-734 735 782 0
734 -735 782 0
-734 -735 -782 0
736 737 -783 0
-736 737 783 0
736 -737 783 0
-736 -737 -783 0
738 739 -784 0
-738 739 784 0
738 -739 784 0
-738 -739 -784 0
740 741 -785 0
-740 741 785 0
740 -741 785 0
-740 -741 -785 0
742 743 -786 0
-742 743 786 0
742 -743 786 0
-742 -743 -786 0
744 745 -787 0
-744 745 787 0
744 -745 787 0
-744 -745 -787 0
746 747 -788 0
-746 747 788 0
746 -747 788 0
-746 -747 -788 0
748 749 -789 0
-748 749 789 0
748 -749 789 0
-748 -749 -789 0
750 751 -790 0
-750 751 790 0
750 -751 790 0
-750 -751 -790 0
752 753 -791 0
-752 753 791 0
752 -753 791 0
-752 -753 -791 0
754 755 -792 0
-754 755 792 0
754 -755 792 0
-754 -755 -792 0
756 757 -793 0
-756 757 793 0
756 -757 793 0
-756 -757 -793 0
758 759 -794 0
-758 759 794 0
758 -759 794 0
-758 -759 -794 0
760 761 -795 0
-760 761 795 0
760 -761 795 0
-760 -761 -795 0
762 763 -796 0
-762 763 796 0
762 -763 796 0
-762 -763 -796 0
764 765 -797 0
-764 765 797 0
764 -765 797 0
-764 -765 -797 0
766 767 -798 0
-766 767 798 0
766 -767 798 0
-766 -767 -798 0
768 769 -799 0
-768 769 799 0
768 -769 799 0
-768 -769 -799 0
770 771 -800 0
-770 771 800 0
770 -771 800 0
-770 -771 -800 0
772 773 -801 0
-772 773 801 0
772 -773 801 0
-772 -773 -801 0
774 775 -802 0
-774 775 802 0
774 -775 802 0
-774 -775 -802 0
776 777 -803 0
-776 777 803 0
776 -777 803 0
-776 -777 -803 0
778 779 -804 0
-778 779 804 0
778 -779 804 0
-778 -779 -804 0
780 781 -805 0
-780 781 805 0
780 -781 805 0
-780 -781 -805 0
782 783 -806 0
-782 783 806 0
782 -783 806 0
-782 -783 -806 0
784 785 -807 0
-784 785 807 0
784 -785 807 0
-784 -785 -807 0
786 787 -808 0
-786 787 808 0
786 -787 808 0
-786 -787 -808 0
788 789 -809 0
-788 789 809 0
788 -789 809 0
-788 -789 -809 0
790 791 -810 0
-790 791 810 0
790 -791 810 0
-790 -791 -810 0
792 793 -811 0
-792 793 811 0
792 -793 811 0
-792 -793 -811 0
794 795 -812 0
-794 795 812 0
794 -795 812 0
-794 -795 -812 0
796 797 -813 0
-796 797 813 0
796 -797 813 0
-796 -797 -813 0
798 799 -814 0
-798 799 814 0
798 -799 814 0
-798 -799 -814 0
800 801 -815 0
-800 801 815 0
800 -801 815 0
-800 -801 -815 0
802 803 -816 0
-802 803 816 0
802 -803 816 0
-802 -803 -816 0
804 805 -817 0
-804 805 817 0
804 -805 817 0
-804 -805 -817 0
806 807 -818 0
-806 807 818 0
806 -807 818 0
-806 -807 -818 0
808 809 -819 0
-808 809 819 0
808 -809 819 0
-808 -809 -819 0
810 811 -820 0
-810 811 820 0
810 -811 820 0
-810 -811 -820 0
812 813 -821 0
-812 813 821 0
812 -813 821 0
-812 -813 -821 0
814 815 -822 0
-814 815 822 0
814 -815 822 0
-814 -815 -822 0
817 818 -823 0
-817 818 823 0
817 -818 823 0
-817 -818 -823 0
819 820 -824 0
-819 820 824 0
819 -820 824 0
-819 -820 -824 0
821 822 -825 0
-821 822 825 0
821 -822 825 0
-821 -822 -825 0
823 824 -826 0
-823 824 826 0
823 -824 826 0
-823 -824 -826 0
825 816 -827 0
-825 816 827 0
825 -816 827 0
-825 -816 -827 0
826 827 -414 0
-826 827 414 0
826 -827 414 0
-826 -827 -414 0
